(declare-fun ExpandObjSwitcher () Real)
(declare-fun CreateAsClass () Bool)
(declare-fun ExpandObjSwitcher_2 () Real)
(declare-fun Constructed_Argument_t () String)
(assert (not (= ExpandObjSwitcher 0.0)))
(assert (= ExpandObjSwitcher 1.0))
(assert (not CreateAsClass))
(assert (= ExpandObjSwitcher_2 0.0))
(assert (not (= Constructed_Argument_t "string")))
(assert (not (= Constructed_Argument_t "number")))
(assert (not (= Constructed_Argument_t "boolean")))
(assert (not (= Constructed_Argument_t "object")))
(assert (= Constructed_Argument_t "array_number"))
(check-sat)
